
--- Job bchfcnet.gms Start 02/08/22 17:03:43 34.3.0 rac355f3 WEX-WEI x86 64bit/MS Windows
--- Applying:
    C:\GAMS\34\gmsprmNT.txt
--- GAMS Parameters defined
    Input C:\Users\dekhi\Desktop\gamsworld\FCNetLib\test\bchfcnet.gms
    PageSize 0
    ScrDir C:\Users\dekhi\Desktop\gamsworld\FCNetLib\test\225a\
    SysDir C:\GAMS\34\
    LogOption 3
    ErrMsg 1
    ErrorLog 99
    IDE 1
    ResLim 3600
    LstTitleLeftAligned 1
Licensee: Eval License                                   S211214|0002AW-GEN
          Ostfalia Hochschule fuer angewandte Wissenschaften        DCE1645
          C:\Users\dekhi\Documents\GAMS\gamslice.txt
          License Admin: Mohamed Ali Dekhil, dekhil.medali@gmail.com       
          Evaluation license: Not for commercial or production use
GAMS 34.3.0   Copyright (C) 1987-2021 GAMS Development. All rights reserved
--- Starting compilation
--- bchfcnet.gms(34) 2 Mb
--- . decl.gms(15) 2 Mb
--- bchfcnet.gms(38) 2 Mb
--- . h50x2450.inc(135) 3 Mb
--- bchfcnet.gms(67) 3 Mb
--- . equs.gms(20) 3 Mb
--- bchfcnet.gms(97) 3 Mb
--- call rm -f bchout_i.gdx startcut.txt startheur.txt cuthist.gdx agap.txt rgap.txt cntfail.txt
--- bchfcnet.gms(118) 3 Mb
--- Starting execution: elapsed 0:00:00.084
--- bchfcnet.gms(193) 5 Mb
--- GDX File (execute_unload) C:\Users\dekhi\Desktop\gamsworld\FCNetLib\test\net.gdx
--- bchfcnet.gms(284) 5 Mb
--- GDXin=C:\Users\dekhi\Desktop\gamsworld\FCNetLib\test\points\h50x2450.gdx
--- bchfcnet.gms(284) 5 Mb
--- GDX File (execute_load) C:\Users\dekhi\Desktop\gamsworld\FCNetLib\test\points\h50x2450.gdx
--- Generating MIP model master
--- bchfcnet.gms(288) 7 Mb
---   2,550 rows  4,901 columns  17,053 non-zeroes
---   2,450 discrete-columns
--- Executing CPLEX (Solvelink=2): elapsed 0:00:00.194

IBM ILOG CPLEX   34.3.0 rac355f3 Released Feb 25, 2021 WEI x86 64bit/MS Window

--- GAMS/Cplex Link licensed for continuous and discrete problems.

Reading parameter(s) from "C:\Users\dekhi\Desktop\gamsworld\FCNetLib\test\cplex.op2"
>>  mipstart 1
Finished reading from "C:\Users\dekhi\Desktop\gamsworld\FCNetLib\test\cplex.op2"

--- Space for names approximately 0.16 Mb
--- Use option 'names no' to turn use of names off
--- GMO memory 1.86 Mb (peak 1.90 Mb)
--- Dictionary memory 0.00 Mb
--- Cplex 20.1.0.0 link memory 0.12 Mb (peak 0.54 Mb)
--- Starting Cplex

Version identifier: 20.1.0.0 | 2020-11-10 | 9bedb6d68
CPXPARAM_Threads                                 1
CPXPARAM_MIP_Display                             4
CPXPARAM_TimeLimit                               3600
CPXPARAM_MIP_Tolerances_AbsMIPGap                0
CPXPARAM_MIP_Tolerances_MIPGap                   0
Generic callback                                 0x50
Processing 1 MIP starts.
MIP start 'm1' defined solution with objective 32906.8808.
1 of 1 MIP starts provided solutions.
MIP start 'm1' defined initial solution with objective 32906.8808.
Tried aggregator 1 time.
MIP Presolve eliminated 49 rows and 51 columns.
Reduced MIP has 2500 rows, 4850 columns, and 12053 nonzeros.
Reduced MIP has 2449 binaries, 0 generals, 0 SOSs, and 0 indicators.
Presolve time = 0.02 sec. (6.25 ticks)
Probing time = 0.00 sec. (4.04 ticks)
Cover probing fixed 48 vars, tightened 52 bounds.
Tried aggregator 1 time.
Detecting symmetries...
MIP Presolve eliminated 0 rows and 48 columns.
MIP Presolve modified 52 coefficients.
Reduced MIP has 2500 rows, 4802 columns, and 12005 nonzeros.
Reduced MIP has 2401 binaries, 0 generals, 0 SOSs, and 0 indicators.
Presolve time = 0.01 sec. (8.04 ticks)
Probing time = 0.02 sec. (4.00 ticks)
Clique table members: 49.
MIP emphasis: balance optimality and feasibility.
MIP search method: dynamic search.
Parallel mode: none, using 1 thread.
Tried aggregator 1 time.
No LP presolve or aggregator reductions.
Presolve time = 0.00 sec. (1.77 ticks)
Initializing dual steep norms . . .

Iteration log . . .
Iteration:     1   Dual objective     =         17575.418579
Iteration:   120   Dual objective     =         25416.536354
Root relaxation solution time = 0.00 sec. (5.91 ticks)

        Nodes                                         Cuts/
   Node  Left     Objective  IInf  Best Integer    Best Bound    ItCnt     Gap

*     0+    0                        32906.8808        0.0000           100.00%
Found incumbent of value 32906.880834 after 0.06 sec. (37.68 ticks)
      0     0    25421.9327    60    32906.8808    25421.9327      123   22.75%
      0     0    28012.3626    57    32906.8808     Cuts: 119      171   14.87%
      0     0    30147.0930    54    32906.8808      Cuts: 73      214    8.39%
      0     0    31268.9750    59    32906.8808      Cuts: 68      247    4.98%
Detecting symmetries...

Repeating presolve.
Tried aggregator 1 time.
MIP Presolve eliminated 1370 rows and 2740 columns.
MIP Presolve modified 880 coefficients.
Reduced MIP has 1130 rows, 2062 columns, and 5155 nonzeros.
Reduced MIP has 1031 binaries, 0 generals, 0 SOSs, and 0 indicators.
Presolve time = 0.00 sec. (4.13 ticks)
Probing fixed 0 vars, tightened 3 bounds.
Probing time = 0.00 sec. (5.43 ticks)
Cover probing fixed 0 vars, tightened 128 bounds.
Tried aggregator 1 time.
Detecting symmetries...
MIP Presolve modified 131 coefficients.
Reduced MIP has 1130 rows, 2062 columns, and 5155 nonzeros.
Reduced MIP has 1031 binaries, 0 generals, 0 SOSs, and 0 indicators.
Presolve time = 0.02 sec. (3.54 ticks)
Represolve time = 0.03 sec. (21.71 ticks)
Probing fixed 0 vars, tightened 12 bounds.
Probing time = 0.00 sec. (5.35 ticks)
Cover probing fixed 0 vars, tightened 56 bounds.
Clique table members: 49.
MIP emphasis: balance optimality and feasibility.
MIP search method: dynamic search.
Parallel mode: none, using 1 thread.
Tried aggregator 1 time.
No LP presolve or aggregator reductions.
Presolve time = 0.00 sec. (1.07 ticks)
Initializing dual steep norms . . .

Iteration log . . .
Iteration:     1   Dual objective     =         17575.418579
Iteration:   106   Dual objective     =         29075.090835
Root relaxation solution time = 0.00 sec. (4.12 ticks)

        Nodes                                         Cuts/
   Node  Left     Objective  IInf  Best Integer    Best Bound    ItCnt     Gap

*     0+    0                        32906.8808    31268.9750             4.98%
Found incumbent of value 32906.880834 after 0.53 sec. (516.20 ticks)
      0     0    31271.2379    59    32906.8808    31271.2379      430    4.97%
      0     0    31685.5305    51    32906.8808      Cuts: 93      465    3.71%
      0     0    32026.3272    55    32906.8808      Cuts: 85      516    2.68%
Detecting symmetries...

Repeating presolve.
Tried aggregator 2 times.
MIP Presolve eliminated 567 rows and 1129 columns.
MIP Presolve modified 401 coefficients.
Aggregator did 8 substitutions.
Reduced MIP has 555 rows, 925 columns, and 2315 nonzeros.
Reduced MIP has 460 binaries, 0 generals, 0 SOSs, and 0 indicators.
Presolve time = 0.00 sec. (2.58 ticks)
Probing fixed 0 vars, tightened 58 bounds.
Probing time = 0.00 sec. (1.36 ticks)
Cover probing fixed 0 vars, tightened 8 bounds.
Tried aggregator 1 time.
Detecting symmetries...
MIP Presolve modified 66 coefficients.
Reduced MIP has 555 rows, 925 columns, and 2315 nonzeros.
Reduced MIP has 460 binaries, 0 generals, 0 SOSs, and 0 indicators.
Presolve time = 0.00 sec. (1.48 ticks)
Represolve time = 0.02 sec. (10.85 ticks)
Probing fixed 0 vars, tightened 17 bounds.
Probing time = 0.01 sec. (1.28 ticks)
Cover probing fixed 0 vars, tightened 11 bounds.
Clique table members: 46.
MIP emphasis: balance optimality and feasibility.
MIP search method: dynamic search.
Parallel mode: none, using 1 thread.
Tried aggregator 1 time.
LP Presolve eliminated 1 rows and 0 columns.
Aggregator did 1 substitutions.
Reduced LP has 764 rows, 924 columns, and 6903 nonzeros.
Presolve time = 0.00 sec. (0.79 ticks)
Initializing dual steep norms . . .

Iteration log . . .
Iteration:     1   Dual objective     =          6304.280609
Iteration:    62   Dual objective     =         25900.914139
Iteration:   164   Dual objective     =         31690.405857
Iteration:   233   Dual objective     =         32029.950519
Initializing dual steep norms . . .
Root relaxation solution time = 0.00 sec. (5.08 ticks)

        Nodes                                         Cuts/
   Node  Left     Objective  IInf  Best Integer    Best Bound    ItCnt     Gap

*     0+    0                        32906.8808    32026.3272             2.68%
Found incumbent of value 32906.880834 after 0.75 sec. (705.49 ticks)
      0     0    32029.9680    48    32906.8808    32029.9680      751    2.66%
      0     0    32282.1014    90    32906.8808      Cuts: 87      846    1.90%
      0     0    32453.0795    83    32906.8808      Cuts: 91      937    1.38%
Detecting symmetries...

Repeating presolve.
Tried aggregator 2 times.
MIP Presolve eliminated 173 rows and 346 columns.
MIP Presolve modified 204 coefficients.
Aggregator did 17 substitutions.
Reduced MIP has 365 rows, 562 columns, and 1416 nonzeros.
Reduced MIP has 270 binaries, 0 generals, 0 SOSs, and 0 indicators.
Presolve time = 0.01 sec. (1.30 ticks)
Probing fixed 0 vars, tightened 28 bounds.
Probing time = 0.00 sec. (0.59 ticks)
Cover probing fixed 0 vars, tightened 3 bounds.
Tried aggregator 2 times.
Detecting symmetries...
MIP Presolve eliminated 4 rows and 3 columns.
MIP Presolve modified 33 coefficients.
Aggregator did 1 substitutions.
Reduced MIP has 360 rows, 558 columns, and 1404 nonzeros.
Reduced MIP has 269 binaries, 0 generals, 0 SOSs, and 0 indicators.
Presolve time = 0.00 sec. (1.62 ticks)
Represolve time = 0.01 sec. (6.90 ticks)
Probing fixed 0 vars, tightened 5 bounds.
Probing time = 0.00 sec. (0.56 ticks)
Cover probing fixed 0 vars, tightened 4 bounds.
Clique table members: 43.
MIP emphasis: balance optimality and feasibility.
MIP search method: dynamic search.
Parallel mode: none, using 1 thread.
Tried aggregator 1 time.
LP Presolve eliminated 1 rows and 0 columns.
Aggregator did 20 substitutions.
Reduced LP has 527 rows, 538 columns, and 3289 nonzeros.
Presolve time = 0.00 sec. (0.51 ticks)
Initializing dual steep norms . . .

Iteration log . . .
Iteration:     1   Scaled dual infeas =           157.497679
Iteration:     6   Dual objective     =          1020.201944
Iteration:    82   Dual objective     =         24553.489643
Iteration:   171   Dual objective     =         31595.872513
Iteration:   233   Dual objective     =         32379.268397
Initializing dual steep norms . . .
Root relaxation solution time = 0.02 sec. (4.53 ticks)

        Nodes                                         Cuts/
   Node  Left     Objective  IInf  Best Integer    Best Bound    ItCnt     Gap

*     0+    0                        32906.8808    32453.0795             1.38%
Found incumbent of value 32906.880834 after 0.94 sec. (854.42 ticks)
      0     0    32453.0837    81    32906.8808    32453.0837     1216    1.38%
      0     0    32702.2446    77    32906.8808     Cuts: 114     1311    0.62%
      0     0    32787.8081    84    32906.8808      Cuts: 78     1386    0.36%
      0     0    32826.3865    82    32906.8808      Cuts: 81     1439    0.24%
      0     0    32851.7613    79    32906.8808      Cuts: 71     1513    0.17%
      0     0    32865.9101    70    32906.8808      Cuts: 49     1568    0.12%
      0     0    32879.6402    68    32906.8808      Cuts: 40     1600    0.08%
      0     0    32893.2183    70    32906.8808      Cuts: 40     1634    0.04%
      0     0    32904.5057    59    32906.8808      Cuts: 39     1667    0.01%
      0     0    32906.8362    30    32906.8808      Cuts: 32     1680    0.00%
*     0     0      integral     0    32906.8808       Cuts: 7     1681    0.00%
Found incumbent of value 32906.880834 after 1.17 sec. (1092.07 ticks)
      0     0        cutoff          32906.8808    32906.8808     1681    0.00%
Elapsed time = 1.17 sec. (1092.07 ticks, tree = 0.01 MB, solutions = 2)

Cover cuts applied:  7
Implied bound cuts applied:  45
Flow cuts applied:  122
Mixed integer rounding cuts applied:  47
Flow path cuts applied:  2
Lift and project cuts applied:  1
Gomory fractional cuts applied:  3

Root node processing (before b&c):
  Real time             =    1.17 sec. (1092.26 ticks)
Sequential b&c:
  Real time             =    0.00 sec. (0.00 ticks)
                          ------------
Total (root+branch&cut) =    1.17 sec. (1092.26 ticks)

--- MIP status (101): integer optimal solution.
--- Cplex Time: 1.17sec (det. 1092.27 ticks)

--- Fixing integer variables and solving final LP...

Version identifier: 20.1.0.0 | 2020-11-10 | 9bedb6d68
CPXPARAM_Advance                                 2
CPXPARAM_Threads                                 1
CPXPARAM_MIP_Display                             4
CPXPARAM_TimeLimit                               3600
CPXPARAM_MIP_Tolerances_AbsMIPGap                0
CPXPARAM_MIP_Tolerances_MIPGap                   0
Tried aggregator 1 time.
LP Presolve eliminated 2549 rows and 4901 columns.
All rows and columns eliminated.
Presolve time = 0.00 sec. (1.80 ticks)

--- Fixed MIP status (1): optimal.
--- Cplex Time: 0.02sec (det. 3.02 ticks)


Proven optimal solution
MIP Solution:        32906.880834    (1681 iterations, 0 nodes)
Final Solve:         32906.880834    (0 iterations)

Best possible:       32906.880834
Absolute gap:            0.000000
Relative gap:            0.000000

--- Reading solution for model master
*** Status: Normal completion
--- Job bchfcnet.gms Stop 02/08/22 17:03:45 elapsed 0:00:01.443
